data/MCDM/NO_CORR/GEN_FROM_60/14_ITEMS_1000_GEN/K5014W10.KNP.mps
NAME          BLANK   
ROWS
 N  OBJROW
 L  R0000000
COLUMNS
    C0000000  OBJROW     -198.         R0000000  714.        
    C0000001  OBJROW     -79.          R0000000  615.        
    C0000002  OBJROW     -914.         R0000000  250.        
    C0000003  OBJROW     -461.         R0000000  495.        
    C0000004  OBJROW     -86.          R0000000  768.        
    C0000005  OBJROW     -158.         R0000000  942.        
    C0000006  OBJROW     -189.         R0000000  705.        
    C0000007  OBJROW     -935.         R0000000  360.        
    C0000008  OBJROW     -595.         R0000000  722.        
    C0000009  OBJROW     -619.         R0000000  473.        
    C0000010  OBJROW     -969.         R0000000  866.        
    C0000011  OBJROW     -576.         R0000000  272.        
    C0000012  OBJROW     -676.         R0000000  745.        
    C0000013  OBJROW     -975.         R0000000  833.        
RHS
    RHS       R0000000  15551.      
BOUNDS
 BV BOUND     C0000000  1.          
 BV BOUND     C0000001  1.          
 BV BOUND     C0000002  1.          
 BV BOUND     C0000003  1.          
 BV BOUND     C0000004  1.          
 BV BOUND     C0000005  1.          
 BV BOUND     C0000006  1.          
 BV BOUND     C0000007  1.          
 BV BOUND     C0000008  1.          
 BV BOUND     C0000009  1.          
 BV BOUND     C0000010  1.          
 BV BOUND     C0000011  1.          
 BV BOUND     C0000012  1.          
 BV BOUND     C0000013  1.          
ENDATA
