interdiction/MCDM/NO_CORR/GEN_FROM_60/14_ITEMS_1000_GEN/K5014W10.KNP.txt
N 14
M 15
LC 14
LC 15
LC 16
LC 17
LC 18
LC 19
LC 20
LC 21
LC 22
LC 23
LC 24
LC 25
LC 26
LC 27
LR 1
LR 2
LR 3
LR 4
LR 5
LR 6
LR 7
LR 8
LR 9
LR 10
LR 11
LR 12
LR 13
LR 14
LR 15
LO -198
LO -79
LO -914
LO -461
LO -86
LO -158
LO -189
LO -935
LO -595
LO -619
LO -969
LO -576
LO -676
LO -975
OS 1
IC 982
IC 965
IC 372
IC 653
IC 123
IC 553
IC 463
IC 853
IC 197
IC 293
IC 142
IC 191
IC 916
IC 118
IB 3411
